NAME : 10_3_3_2_(32).dat
COMMENT : Henke, Speranza, Wäscher, 2015
TYPE : MCVRP
DIMENSION : 11
EDGE_WEIGHT_TYPE : DISTANCE_MATRIX
CAPACITY : 1000
VEHICLES : 2
PRODUCT TYPES : 3
COMPARTMENTS : 3
NODE_COORD_SECTION
1 50 50
2 79.11 47.85
3 28.99 82.02
4 60.14 53.71
5 45.16 50.17
6 79.67 52.3
7 62.86 57.2
8 4.41 78.82
9 23.46 18.7
10 38.62 86.58
11 64.86 29.95
DEMAND_SECTION
1 0 0 0
2 58 0 44
3 62 122 0
4 109 77 0
5 38 0 44
6 25 0 55
7 105 55 0
8 94 95 0
9 55 44 0
10 92 0 57
11 16 0 62
DEPOT_SECTION
1
EOF